
Gurobi 9.0.1 (linux64) logging started Thu Apr 30 05:57:40 2020

Gurobi Optimizer version 9.0.1 build v9.0.1rc0 (linux64)
Optimize a model with 872 rows, 990 columns and 6936 nonzeros
Model fingerprint: 0xba476e47
Variable types: 0 continuous, 990 integer (980 binary)
Coefficient statistics:
  Matrix range     [1e+00, 5e+00]
  Objective range  [1e+01, 9e+01]
  Bounds range     [1e+00, 1e+00]
  RHS range        [1e+00, 1e+00]

User MIP start produced solution with objective 501 (0.00s)
Loaded user MIP start with objective 501

Presolve removed 208 rows and 360 columns
Presolve time: 0.06s
Presolved: 664 rows, 630 columns, 4902 nonzeros
Variable types: 0 continuous, 630 integer (622 binary)

Root relaxation: objective 3.955607e+02, 577 iterations, 0.03 seconds

    Nodes    |    Current Node    |     Objective Bounds      |     Work
 Expl Unexpl |  Obj  Depth IntInf | Incumbent    BestBd   Gap | It/Node Time

     0     0  395.56071    0  287  501.00000  395.56071  21.0%     -    0s
     0     0  408.98288    0  277  501.00000  408.98288  18.4%     -    0s
     0     0  421.01802    0  289  501.00000  421.01802  16.0%     -    0s
     0     0  421.25837    0  290  501.00000  421.25837  15.9%     -    0s
     0     0  421.26256    0  289  501.00000  421.26256  15.9%     -    0s
     0     0  430.66693    0  302  501.00000  430.66693  14.0%     -    0s
     0     0  432.07918    0  297  501.00000  432.07918  13.8%     -    0s
     0     0  432.31514    0  296  501.00000  432.31514  13.7%     -    0s
     0     0  432.32034    0  298  501.00000  432.32034  13.7%     -    0s
     0     0  438.07003    0  303  501.00000  438.07003  12.6%     -    0s
     0     0  438.44155    0  290  501.00000  438.44155  12.5%     -    0s
     0     0  438.53845    0  301  501.00000  438.53845  12.5%     -    0s
     0     0  438.56626    0  298  501.00000  438.56626  12.5%     -    0s
     0     0  439.22096    0  303  501.00000  439.22096  12.3%     -    0s
     0     0  439.30965    0  296  501.00000  439.30965  12.3%     -    0s
     0     0  439.35166    0  293  501.00000  439.35166  12.3%     -    0s
     0     0  439.36186    0  295  501.00000  439.36186  12.3%     -    0s
     0     0  440.50593    0  312  501.00000  440.50593  12.1%     -    1s
     0     0  440.62611    0  305  501.00000  440.62611  12.1%     -    1s
     0     0  440.65352    0  305  501.00000  440.65352  12.0%     -    1s
     0     0  441.53215    0  305  501.00000  441.53215  11.9%     -    1s
     0     0  441.57234    0  305  501.00000  441.57234  11.9%     -    1s
     0     0  441.57468    0  304  501.00000  441.57468  11.9%     -    1s
     0     0  441.63583    0  305  501.00000  441.63583  11.8%     -    1s
     0     0  441.63583    0  305  501.00000  441.63583  11.8%     -    1s
     0     0  441.69273    0  287  501.00000  441.69273  11.8%     -    1s
     0     0  441.69273    0  293  501.00000  441.69273  11.8%     -    1s
     0     0  441.69273    0  295  501.00000  441.69273  11.8%     -    1s
     0     0  441.69273    0  295  501.00000  441.69273  11.8%     -    1s
     0     0  441.69273    0  298  501.00000  441.69273  11.8%     -    1s
     0     0  441.69273    0  305  501.00000  441.69273  11.8%     -    1s
     0     0  441.69273    0  304  501.00000  441.69273  11.8%     -    1s
     0     0  441.69273    0  303  501.00000  441.69273  11.8%     -    1s
     0     0  445.88382    0  310  501.00000  445.88382  11.0%     -    2s
     0     0  446.21228    0  309  501.00000  446.21228  10.9%     -    2s
     0     0  446.33095    0  305  501.00000  446.33095  10.9%     -    2s
     0     0  446.33543    0  306  501.00000  446.33543  10.9%     -    2s
     0     0  446.67257    0  304  501.00000  446.67257  10.8%     -    2s
     0     0  447.10147    0  311  501.00000  447.10147  10.8%     -    2s
     0     0  447.57196    0  310  501.00000  447.57196  10.7%     -    2s
     0     0  447.59930    0  309  501.00000  447.59930  10.7%     -    2s
     0     0  448.08655    0  307  501.00000  448.08655  10.6%     -    2s
     0     0  448.09546    0  298  501.00000  448.09546  10.6%     -    2s
     0     0  448.10032    0  307  501.00000  448.10032  10.6%     -    2s
     0     0  448.10032    0  307  501.00000  448.10032  10.6%     -    2s
     0     2  448.14933    0  307  501.00000  448.14933  10.5%     -    2s
   182    56     cutoff    7       501.00000  464.34781  7.32%   115    5s

Cutting planes:
  MIR: 13
  Inf proof: 1
  Zero half: 35
  RLT: 161

Explored 460 nodes (47649 simplex iterations) in 7.47 seconds
Thread count was 1 (of 40 available processors)

Solution count 1: 501 

Optimal solution found (tolerance 1.00e-04)
Best objective 5.010000000000e+02, best bound 5.010000000000e+02, gap 0.0000%

User-callback calls 2360, time in user-callback 0.00 sec
